80 254731
20 14 34 27 47 51 41 48 55 10 17 75 31 60 77 25 54 62 49 7 24 33 15 28 63 11 40 71 45 52 18 29 78 70 79 58 21 57 37 35 44 56 30 32 53 23 72 9 42 26 2 50 22 64 76 6 43 8 38 1 69 67 68 80 19 59 66 74 13 39 46 3 73 16 61 5 4 65 12 36 
